p cnf 964 2475
51 -2 -1 0
-51 2 0
-51 1 0
52 -51 -3 0
-52 51 0
-52 3 0
53 -4 -697 0
-53 4 0
-53 697 0
54 -53 -5 0
-54 53 0
-54 5 0
55 -698 -699 0
-55 698 0
-55 699 0
56 -700 -6 0
-56 700 0
-56 6 0
57 -56 -701 0
-57 56 0
-57 701 0
58 -702 -55 0
-58 702 0
-58 55 0
59 -703 -9 0
-59 703 0
-59 9 0
60 -59 -11 0
-60 59 0
-60 11 0
61 -704 -58 0
-61 704 0
-61 58 0
62 -705 -2 0
-62 705 0
-62 2 0
63 -62 -13 0
-63 62 0
-63 13 0
64 -706 -61 0
-64 706 0
-64 61 0
65 -707 -14 0
-65 707 0
-65 14 0
66 -65 -708 0
-66 65 0
-66 708 0
67 -709 -64 0
-67 709 0
-67 64 0
68 -17 -710 0
-68 17 0
-68 710 0
69 -68 -711 0
-69 68 0
-69 711 0
70 -712 -67 0
-70 712 0
-70 67 0
71 -19 -6 0
-71 19 0
-71 6 0
72 -71 -20 0
-72 71 0
-72 20 0
73 -713 -70 0
-73 713 0
-73 70 0
74 -21 -19 0
-74 21 0
-74 19 0
75 -74 -1 0
-75 74 0
-75 1 0
76 -714 -73 0
-76 714 0
-76 73 0
77 -715 -17 0
-77 715 0
-77 17 0
78 -77 -701 0
-78 77 0
-78 701 0
79 -716 -76 0
-79 716 0
-79 76 0
80 -24 -717 0
-80 24 0
-80 717 0
81 -80 -13 0
-81 80 0
-81 13 0
82 -718 -79 0
-82 718 0
-82 79 0
83 -719 -25 0
-83 719 0
-83 25 0
84 -83 -27 0
-84 83 0
-84 27 0
85 -720 -82 0
-85 720 0
-85 82 0
86 -29 -28 0
-86 29 0
-86 28 0
87 -86 -30 0
-87 86 0
-87 30 0
88 -721 -85 0
-88 721 0
-88 85 0
89 -31 -722 0
-89 31 0
-89 722 0
90 -89 -18 0
-90 89 0
-90 18 0
91 -723 -88 0
-91 723 0
-91 88 0
92 -15 -7 0
-92 15 0
-92 7 0
93 -92 -10 0
-93 92 0
-93 10 0
94 -724 -91 0
-94 724 0
-94 91 0
95 -725 -16 0
-95 725 0
-95 16 0
96 -95 -726 0
-96 95 0
-96 726 0
97 -727 -94 0
-97 727 0
-97 94 0
98 -728 -729 0
-98 728 0
-98 729 0
99 -98 -34 0
-99 98 0
-99 34 0
100 -730 -97 0
-100 730 0
-100 97 0
101 -731 -19 0
-101 731 0
-101 19 0
102 -101 -732 0
-102 101 0
-102 732 0
103 -733 -100 0
-103 733 0
-103 100 0
104 -34 -715 0
-104 34 0
-104 715 0
105 -104 -29 0
-105 104 0
-105 29 0
106 -734 -103 0
-106 734 0
-106 103 0
107 -717 -14 0
-107 717 0
-107 14 0
108 -107 -708 0
-108 107 0
-108 708 0
109 -735 -106 0
-109 735 0
-109 106 0
110 -9 -701 0
-110 9 0
-110 701 0
111 -110 -736 0
-111 110 0
-111 736 0
112 -737 -109 0
-112 737 0
-112 109 0
113 -738 -4 0
-113 738 0
-113 4 0
114 -113 -10 0
-114 113 0
-114 10 0
115 -739 -112 0
-115 739 0
-115 112 0
116 -725 -740 0
-116 725 0
-116 740 0
117 -116 -9 0
-117 116 0
-117 9 0
118 -741 -115 0
-118 741 0
-118 115 0
119 -38 -715 0
-119 38 0
-119 715 0
120 -119 -710 0
-120 119 0
-120 710 0
121 -742 -118 0
-121 742 0
-121 118 0
122 -39 -743 0
-122 39 0
-122 743 0
123 -122 -744 0
-123 122 0
-123 744 0
124 -745 -121 0
-124 745 0
-124 121 0
125 -708 -14 0
-125 708 0
-125 14 0
126 -125 -746 0
-126 125 0
-126 746 0
127 -747 -124 0
-127 747 0
-127 124 0
128 -748 -749 0
-128 748 0
-128 749 0
129 -128 -5 0
-129 128 0
-129 5 0
130 -750 -127 0
-130 750 0
-130 127 0
131 -748 -751 0
-131 748 0
-131 751 0
132 -131 -752 0
-132 131 0
-132 752 0
133 -753 -130 0
-133 753 0
-133 130 0
134 -751 -25 0
-134 751 0
-134 25 0
135 -134 -754 0
-135 134 0
-135 754 0
136 -755 -133 0
-136 755 0
-136 133 0
137 -728 -5 0
-137 728 0
-137 5 0
138 -137 -744 0
-138 137 0
-138 744 0
139 -756 -136 0
-139 756 0
-139 136 0
140 -23 -11 0
-140 23 0
-140 11 0
141 -140 -746 0
-141 140 0
-141 746 0
142 -757 -139 0
-142 757 0
-142 139 0
143 -15 -1 0
-143 15 0
-143 1 0
144 -143 -748 0
-144 143 0
-144 748 0
145 -758 -142 0
-145 758 0
-145 142 0
146 -751 -2 0
-146 751 0
-146 2 0
147 -146 -12 0
-147 146 0
-147 12 0
148 -759 -145 0
-148 759 0
-148 145 0
149 -719 -14 0
-149 719 0
-149 14 0
150 -149 -746 0
-150 149 0
-150 746 0
151 -760 -148 0
-151 760 0
-151 148 0
152 -37 -761 0
-152 37 0
-152 761 0
153 -152 -697 0
-153 152 0
-153 697 0
154 -762 -151 0
-154 762 0
-154 151 0
155 -736 -715 0
-155 736 0
-155 715 0
156 -155 -26 0
-156 155 0
-156 26 0
157 -763 -154 0
-157 763 0
-157 154 0
158 -17 -8 0
-158 17 0
-158 8 0
159 -158 -5 0
-159 158 0
-159 5 0
160 -764 -157 0
-160 764 0
-160 157 0
161 -728 -14 0
-161 728 0
-161 14 0
162 -161 -26 0
-162 161 0
-162 26 0
163 -765 -160 0
-163 765 0
-163 160 0
164 -749 -766 0
-164 749 0
-164 766 0
165 -164 -30 0
-165 164 0
-165 30 0
166 -767 -163 0
-166 767 0
-166 163 0
167 -16 -701 0
-167 16 0
-167 701 0
168 -167 -20 0
-168 167 0
-168 20 0
169 -768 -166 0
-169 768 0
-169 166 0
170 -43 -7 0
-170 43 0
-170 7 0
171 -170 -26 0
-171 170 0
-171 26 0
172 -769 -169 0
-172 769 0
-172 169 0
173 -44 -770 0
-173 44 0
-173 770 0
174 -173 -771 0
-174 173 0
-174 771 0
175 -772 -172 0
-175 772 0
-175 172 0
176 -729 -7 0
-176 729 0
-176 7 0
177 -176 -18 0
-177 176 0
-177 18 0
178 -773 -175 0
-178 773 0
-178 175 0
179 -11 -1 0
-179 11 0
-179 1 0
180 -179 -774 0
-180 179 0
-180 774 0
181 -775 -178 0
-181 775 0
-181 178 0
182 -776 -717 0
-182 776 0
-182 717 0
183 -182 -24 0
-183 182 0
-183 24 0
184 -777 -181 0
-184 777 0
-184 181 0
185 -26 -25 0
-185 26 0
-185 25 0
186 -185 -29 0
-186 185 0
-186 29 0
187 -778 -184 0
-187 778 0
-187 184 0
188 -39 -703 0
-188 39 0
-188 703 0
189 -188 -779 0
-189 188 0
-189 779 0
190 -780 -187 0
-190 780 0
-190 187 0
191 -42 -40 0
-191 42 0
-191 40 0
192 -191 -18 0
-192 191 0
-192 18 0
193 -781 -190 0
-193 781 0
-193 190 0
194 -37 -12 0
-194 37 0
-194 12 0
195 -194 -5 0
-195 194 0
-195 5 0
196 -782 -193 0
-196 782 0
-196 193 0
197 -32 -715 0
-197 32 0
-197 715 0
198 -197 -754 0
-198 197 0
-198 754 0
199 -783 -196 0
-199 783 0
-199 196 0
200 -14 -8 0
-200 14 0
-200 8 0
201 -200 -784 0
-201 200 0
-201 784 0
202 -785 -199 0
-202 785 0
-202 199 0
203 -728 -19 0
-203 728 0
-203 19 0
204 -203 -20 0
-204 203 0
-204 20 0
205 -786 -202 0
-205 786 0
-205 202 0
206 -744 -708 0
-206 744 0
-206 708 0
207 -206 -11 0
-207 206 0
-207 11 0
208 -787 -205 0
-208 787 0
-208 205 0
209 -77 -33 0
-209 77 0
-209 33 0
210 -788 -208 0
-210 788 0
-210 208 0
211 -44 -789 0
-211 44 0
-211 789 0
212 -211 -26 0
-212 211 0
-212 26 0
213 -790 -210 0
-213 790 0
-213 210 0
214 -791 -32 0
-214 791 0
-214 32 0
215 -214 -708 0
-215 214 0
-215 708 0
216 -792 -213 0
-216 792 0
-216 213 0
217 -748 -7 0
-217 748 0
-217 7 0
218 -217 -11 0
-218 217 0
-218 11 0
219 -793 -216 0
-219 793 0
-219 216 0
220 -48 -729 0
-220 48 0
-220 729 0
221 -220 -726 0
-221 220 0
-221 726 0
222 -794 -219 0
-222 794 0
-222 219 0
223 -795 -36 0
-223 795 0
-223 36 0
224 -223 -752 0
-224 223 0
-224 752 0
225 -796 -222 0
-225 796 0
-225 222 0
226 -50 -732 0
-226 50 0
-226 732 0
227 -226 -774 0
-227 226 0
-227 774 0
228 -797 -225 0
-228 797 0
-228 225 0
229 -725 -761 0
-229 725 0
-229 761 0
230 -229 -746 0
-230 229 0
-230 746 0
231 -798 -228 0
-231 798 0
-231 228 0
232 -791 -799 0
-232 791 0
-232 799 0
233 -232 -779 0
-233 232 0
-233 779 0
234 -800 -231 0
-234 800 0
-234 231 0
235 -40 -33 0
-235 40 0
-235 33 0
236 -235 -26 0
-236 235 0
-236 26 0
237 -801 -234 0
-237 801 0
-237 234 0
238 -24 -707 0
-238 24 0
-238 707 0
239 -238 -5 0
-239 238 0
-239 5 0
240 -802 -237 0
-240 802 0
-240 237 0
241 -708 -710 0
-241 708 0
-241 710 0
242 -241 -752 0
-242 241 0
-242 752 0
243 -803 -240 0
-243 803 0
-243 240 0
244 -43 -728 0
-244 43 0
-244 728 0
245 -244 -774 0
-245 244 0
-245 774 0
246 -804 -243 0
-246 804 0
-246 243 0
247 -791 -728 0
-247 791 0
-247 728 0
248 -247 -805 0
-248 247 0
-248 805 0
249 -806 -246 0
-249 806 0
-249 246 0
250 -807 -738 0
-250 807 0
-250 738 0
251 -250 -40 0
-251 250 0
-251 40 0
252 -808 -249 0
-252 808 0
-252 249 0
253 -39 -25 0
-253 39 0
-253 25 0
254 -253 -701 0
-254 253 0
-254 701 0
255 -809 -252 0
-255 809 0
-255 252 0
256 -725 -751 0
-256 725 0
-256 751 0
257 -256 -15 0
-257 256 0
-257 15 0
258 -810 -255 0
-258 810 0
-258 255 0
259 -789 -703 0
-259 789 0
-259 703 0
260 -259 -771 0
-260 259 0
-260 771 0
261 -811 -258 0
-261 811 0
-261 258 0
262 -8 -710 0
-262 8 0
-262 710 0
263 -262 -10 0
-263 262 0
-263 10 0
264 -812 -261 0
-264 812 0
-264 261 0
265 -813 -717 0
-265 813 0
-265 717 0
266 -265 -16 0
-266 265 0
-266 16 0
267 -814 -264 0
-267 814 0
-267 264 0
268 -748 -14 0
-268 748 0
-268 14 0
269 -268 -30 0
-269 268 0
-269 30 0
270 -815 -267 0
-270 815 0
-270 267 0
271 -744 -36 0
-271 744 0
-271 36 0
272 -271 -722 0
-272 271 0
-272 722 0
273 -816 -270 0
-273 816 0
-273 270 0
274 -791 -729 0
-274 791 0
-274 729 0
275 -274 -771 0
-275 274 0
-275 771 0
276 -817 -273 0
-276 817 0
-276 273 0
277 -33 -789 0
-277 33 0
-277 789 0
278 -277 -736 0
-278 277 0
-278 736 0
279 -818 -276 0
-279 818 0
-279 276 0
280 -49 -24 0
-280 49 0
-280 24 0
281 -280 -30 0
-281 280 0
-281 30 0
282 -819 -279 0
-282 819 0
-282 279 0
283 -820 -738 0
-283 820 0
-283 738 0
284 -283 -705 0
-284 283 0
-284 705 0
285 -821 -282 0
-285 821 0
-285 282 0
286 -743 -751 0
-286 743 0
-286 751 0
287 -286 -771 0
-287 286 0
-287 771 0
288 -822 -285 0
-288 822 0
-288 285 0
289 -44 -8 0
-289 44 0
-289 8 0
290 -289 -736 0
-290 289 0
-290 736 0
291 -823 -288 0
-291 823 0
-291 288 0
292 -46 -715 0
-292 46 0
-292 715 0
293 -292 -30 0
-293 292 0
-293 30 0
294 -824 -291 0
-294 824 0
-294 291 0
295 -708 -703 0
-295 708 0
-295 703 0
296 -295 -779 0
-296 295 0
-296 779 0
297 -825 -294 0
-297 825 0
-297 294 0
298 -25 -789 0
-298 25 0
-298 789 0
299 -298 -45 0
-299 298 0
-299 45 0
300 -826 -297 0
-300 826 0
-300 297 0
301 -46 -827 0
-301 46 0
-301 827 0
302 -301 -711 0
-302 301 0
-302 711 0
303 -828 -300 0
-303 828 0
-303 300 0
304 -101 -754 0
-304 101 0
-304 754 0
305 -829 -303 0
-305 829 0
-305 303 0
306 -47 -22 0
-306 47 0
-306 22 0
307 -306 -5 0
-307 306 0
-307 5 0
308 -830 -305 0
-308 830 0
-308 305 0
309 -48 -728 0
-309 48 0
-309 728 0
310 -309 -36 0
-310 309 0
-310 36 0
311 -831 -308 0
-311 831 0
-311 308 0
312 -31 -761 0
-312 31 0
-312 761 0
313 -312 -7 0
-313 312 0
-313 7 0
314 -832 -311 0
-314 832 0
-314 311 0
315 -26 -697 0
-315 26 0
-315 697 0
316 -315 -30 0
-316 315 0
-316 30 0
317 -833 -314 0
-317 833 0
-317 314 0
318 -27 -1 0
-318 27 0
-318 1 0
319 -318 -30 0
-319 318 0
-319 30 0
320 -834 -317 0
-320 834 0
-320 317 0
321 -40 -835 0
-321 40 0
-321 835 0
322 -321 -805 0
-322 321 0
-322 805 0
323 -836 -320 0
-323 836 0
-323 320 0
324 -776 -761 0
-324 776 0
-324 761 0
325 -324 -807 0
-325 324 0
-325 807 0
326 -837 -323 0
-326 837 0
-326 323 0
327 -116 -752 0
-327 116 0
-327 752 0
328 -838 -326 0
-328 838 0
-328 326 0
329 -44 -14 0
-329 44 0
-329 14 0
330 -329 -22 0
-330 329 0
-330 22 0
331 -839 -328 0
-331 839 0
-331 328 0
332 -779 -27 0
-332 779 0
-332 27 0
333 -332 -46 0
-333 332 0
-333 46 0
334 -840 -331 0
-334 840 0
-334 331 0
335 -40 -16 0
-335 40 0
-335 16 0
336 -335 -722 0
-336 335 0
-336 722 0
337 -841 -334 0
-337 841 0
-337 334 0
338 -813 -34 0
-338 813 0
-338 34 0
339 -338 -752 0
-339 338 0
-339 752 0
340 -842 -337 0
-340 842 0
-340 337 0
341 -731 -6 0
-341 731 0
-341 6 0
342 -341 -711 0
-342 341 0
-342 711 0
343 -843 -340 0
-343 843 0
-343 340 0
344 -36 -740 0
-344 36 0
-344 740 0
345 -344 -12 0
-345 344 0
-345 12 0
346 -844 -343 0
-346 844 0
-346 343 0
347 -45 -807 0
-347 45 0
-347 807 0
348 -347 -774 0
-348 347 0
-348 774 0
349 -845 -346 0
-349 845 0
-349 346 0
350 -820 -791 0
-350 820 0
-350 791 0
351 -350 -46 0
-351 350 0
-351 46 0
352 -846 -349 0
-352 846 0
-352 349 0
353 -725 -707 0
-353 725 0
-353 707 0
354 -353 -697 0
-354 353 0
-354 697 0
355 -847 -352 0
-355 847 0
-355 352 0
356 -761 -6 0
-356 761 0
-356 6 0
357 -356 -23 0
-357 356 0
-357 23 0
358 -848 -355 0
-358 848 0
-358 355 0
359 -11 -701 0
-359 11 0
-359 701 0
360 -359 -46 0
-360 359 0
-360 46 0
361 -849 -358 0
-361 849 0
-361 358 0
362 -37 -749 0
-362 37 0
-362 749 0
363 -362 -774 0
-363 362 0
-363 774 0
364 -850 -361 0
-364 850 0
-364 361 0
365 -35 -31 0
-365 35 0
-365 31 0
366 -365 -754 0
-366 365 0
-366 754 0
367 -851 -364 0
-367 851 0
-367 364 0
368 -10 -835 0
-368 10 0
-368 835 0
369 -368 -774 0
-369 368 0
-369 774 0
370 -852 -367 0
-370 852 0
-370 367 0
371 -761 -4 0
-371 761 0
-371 4 0
372 -371 -28 0
-372 371 0
-372 28 0
373 -853 -370 0
-373 853 0
-373 370 0
374 -38 -25 0
-374 38 0
-374 25 0
375 -374 -820 0
-375 374 0
-375 820 0
376 -854 -373 0
-376 854 0
-376 373 0
377 -43 -27 0
-377 43 0
-377 27 0
378 -377 -29 0
-378 377 0
-378 29 0
379 -855 -376 0
-379 855 0
-379 376 0
380 -9 -6 0
-380 9 0
-380 6 0
381 -380 -29 0
-381 380 0
-381 29 0
382 -856 -379 0
-382 856 0
-382 379 0
383 -728 -2 0
-383 728 0
-383 2 0
384 -383 -5 0
-384 383 0
-384 5 0
385 -857 -382 0
-385 857 0
-385 382 0
386 -44 -25 0
-386 44 0
-386 25 0
387 -386 -728 0
-387 386 0
-387 728 0
388 -858 -385 0
-388 858 0
-388 385 0
389 -731 -34 0
-389 731 0
-389 34 0
390 -389 -719 0
-390 389 0
-390 719 0
391 -859 -388 0
-391 859 0
-391 388 0
392 -34 -700 0
-392 34 0
-392 700 0
393 -392 -20 0
-393 392 0
-393 20 0
394 -860 -391 0
-394 860 0
-394 391 0
395 -791 -743 0
-395 791 0
-395 743 0
396 -395 -18 0
-396 395 0
-396 18 0
397 -861 -394 0
-397 861 0
-397 394 0
398 -40 -751 0
-398 40 0
-398 751 0
399 -398 -45 0
-399 398 0
-399 45 0
400 -862 -397 0
-400 862 0
-400 397 0
401 -732 -789 0
-401 732 0
-401 789 0
402 -401 -9 0
-402 401 0
-402 9 0
403 -863 -400 0
-403 863 0
-403 400 0
404 -813 -43 0
-404 813 0
-404 43 0
405 -404 -744 0
-405 404 0
-405 744 0
406 -864 -403 0
-406 864 0
-406 403 0
407 -31 -19 0
-407 31 0
-407 19 0
408 -407 -805 0
-408 407 0
-408 805 0
409 -865 -406 0
-409 865 0
-409 406 0
410 -866 -8 0
-410 866 0
-410 8 0
411 -410 -2 0
-411 410 0
-411 2 0
412 -867 -409 0
-412 867 0
-412 409 0
413 -732 -703 0
-413 732 0
-413 703 0
414 -413 -11 0
-414 413 0
-414 11 0
415 -868 -412 0
-415 868 0
-415 412 0
416 -827 -14 0
-416 827 0
-416 14 0
417 -416 -39 0
-417 416 0
-417 39 0
418 -869 -415 0
-418 869 0
-418 415 0
419 -20 -1 0
-419 20 0
-419 1 0
420 -419 -774 0
-420 419 0
-420 774 0
421 -870 -418 0
-421 870 0
-421 418 0
422 -2 -835 0
-422 2 0
-422 835 0
423 -422 -34 0
-423 422 0
-423 34 0
424 -871 -421 0
-424 871 0
-424 421 0
425 -38 -726 0
-425 38 0
-425 726 0
426 -425 -697 0
-426 425 0
-426 697 0
427 -872 -424 0
-427 872 0
-427 424 0
428 -41 -28 0
-428 41 0
-428 28 0
429 -428 -746 0
-429 428 0
-429 746 0
430 -873 -427 0
-430 873 0
-430 427 0
431 -866 -23 0
-431 866 0
-431 23 0
432 -431 -26 0
-432 431 0
-432 26 0
433 -874 -430 0
-433 874 0
-433 430 0
434 -807 -728 0
-434 807 0
-434 728 0
435 -434 -50 0
-435 434 0
-435 50 0
436 -875 -433 0
-436 875 0
-436 433 0
437 -37 -866 0
-437 37 0
-437 866 0
438 -437 -45 0
-438 437 0
-438 45 0
439 -876 -436 0
-439 876 0
-439 436 0
440 -24 -22 0
-440 24 0
-440 22 0
441 -440 -729 0
-441 440 0
-441 729 0
442 -877 -439 0
-442 877 0
-442 439 0
443 -866 -717 0
-443 866 0
-443 717 0
444 -443 -752 0
-444 443 0
-444 752 0
445 -878 -442 0
-445 878 0
-445 442 0
446 -31 -17 0
-446 31 0
-446 17 0
447 -446 -25 0
-447 446 0
-447 25 0
448 -879 -445 0
-448 879 0
-448 445 0
449 -39 -740 0
-449 39 0
-449 740 0
450 -449 -746 0
-450 449 0
-450 746 0
451 -880 -448 0
-451 880 0
-451 448 0
452 -33 -15 0
-452 33 0
-452 15 0
453 -452 -18 0
-453 452 0
-453 18 0
454 -881 -451 0
-454 881 0
-454 451 0
455 -44 -9 0
-455 44 0
-455 9 0
456 -455 -882 0
-456 455 0
-456 882 0
457 -883 -454 0
-457 883 0
-457 454 0
458 -40 -35 0
-458 40 0
-458 35 0
459 -458 -11 0
-459 458 0
-459 11 0
460 -884 -457 0
-460 884 0
-460 457 0
461 -14 -882 0
-461 14 0
-461 882 0
462 -461 -40 0
-462 461 0
-462 40 0
463 -885 -460 0
-463 885 0
-463 460 0
464 -16 -8 0
-464 16 0
-464 8 0
465 -464 -34 0
-465 464 0
-465 34 0
466 -886 -463 0
-466 886 0
-466 463 0
467 -827 -725 0
-467 827 0
-467 725 0
468 -467 -708 0
-468 467 0
-468 708 0
469 -887 -466 0
-469 887 0
-469 466 0
470 -751 -740 0
-470 751 0
-470 740 0
471 -470 -50 0
-471 470 0
-471 50 0
472 -888 -469 0
-472 888 0
-472 469 0
473 -38 -719 0
-473 38 0
-473 719 0
474 -473 -29 0
-474 473 0
-474 29 0
475 -889 -472 0
-475 889 0
-475 472 0
476 -250 -8 0
-476 250 0
-476 8 0
477 -890 -475 0
-477 890 0
-477 475 0
478 -31 -22 0
-478 31 0
-478 22 0
479 -478 -26 0
-479 478 0
-479 26 0
480 -891 -477 0
-480 891 0
-480 477 0
481 -789 -2 0
-481 789 0
-481 2 0
482 -481 -743 0
-482 481 0
-482 743 0
483 -892 -480 0
-483 892 0
-483 480 0
484 -39 -9 0
-484 39 0
-484 9 0
485 -484 -784 0
-485 484 0
-485 784 0
486 -893 -483 0
-486 893 0
-486 483 0
487 -44 -754 0
-487 44 0
-487 754 0
488 -487 -697 0
-488 487 0
-488 697 0
489 -894 -486 0
-489 894 0
-489 486 0
490 -38 -731 0
-490 38 0
-490 731 0
491 -490 -779 0
-491 490 0
-491 779 0
492 -895 -489 0
-492 895 0
-492 489 0
493 -41 -31 0
-493 41 0
-493 31 0
494 -493 -28 0
-494 493 0
-494 28 0
495 -896 -492 0
-495 896 0
-495 492 0
496 -731 -32 0
-496 731 0
-496 32 0
497 -496 -9 0
-497 496 0
-497 9 0
498 -897 -495 0
-498 897 0
-498 495 0
499 -14 -697 0
-499 14 0
-499 697 0
500 -499 -784 0
-500 499 0
-500 784 0
501 -898 -498 0
-501 898 0
-501 498 0
502 -791 -31 0
-502 791 0
-502 31 0
503 -502 -703 0
-503 502 0
-503 703 0
504 -899 -501 0
-504 899 0
-504 501 0
505 -38 -17 0
-505 38 0
-505 17 0
506 -505 -16 0
-506 505 0
-506 16 0
507 -900 -504 0
-507 900 0
-507 504 0
508 -736 -705 0
-508 736 0
-508 705 0
509 -508 -746 0
-509 508 0
-509 746 0
510 -901 -507 0
-510 901 0
-510 507 0
511 -731 -697 0
-511 731 0
-511 697 0
512 -511 -799 0
-512 511 0
-512 799 0
513 -902 -510 0
-513 902 0
-513 510 0
514 -28 -766 0
-514 28 0
-514 766 0
515 -514 -711 0
-515 514 0
-515 711 0
516 -903 -513 0
-516 903 0
-516 513 0
517 -795 -7 0
-517 795 0
-517 7 0
518 -517 -744 0
-518 517 0
-518 744 0
519 -904 -516 0
-519 904 0
-519 516 0
520 -770 -32 0
-520 770 0
-520 32 0
521 -520 -8 0
-521 520 0
-521 8 0
522 -905 -519 0
-522 905 0
-522 519 0
523 -771 -707 0
-523 771 0
-523 707 0
524 -523 -18 0
-524 523 0
-524 18 0
525 -906 -522 0
-525 906 0
-525 522 0
526 -751 -4 0
-526 751 0
-526 4 0
527 -526 -3 0
-527 526 0
-527 3 0
528 -907 -525 0
-528 907 0
-528 525 0
529 -41 -21 0
-529 41 0
-529 21 0
530 -529 -40 0
-530 529 0
-530 40 0
531 -908 -528 0
-531 908 0
-531 528 0
532 -715 -16 0
-532 715 0
-532 16 0
533 -532 -722 0
-533 532 0
-533 722 0
534 -909 -531 0
-534 909 0
-534 531 0
535 -807 -725 0
-535 807 0
-535 725 0
536 -535 -700 0
-536 535 0
-536 700 0
537 -910 -534 0
-537 910 0
-537 534 0
538 -707 -701 0
-538 707 0
-538 701 0
539 -538 -50 0
-539 538 0
-539 50 0
540 -911 -537 0
-540 911 0
-540 537 0
541 -813 -13 0
-541 813 0
-541 13 0
542 -541 -779 0
-542 541 0
-542 779 0
543 -912 -540 0
-543 912 0
-543 540 0
544 -37 -722 0
-544 37 0
-544 722 0
545 -544 -46 0
-545 544 0
-545 46 0
546 -913 -543 0
-546 913 0
-546 543 0
547 -743 -715 0
-547 743 0
-547 715 0
548 -547 -784 0
-548 547 0
-548 784 0
549 -914 -546 0
-549 914 0
-549 546 0
550 -47 -24 0
-550 47 0
-550 24 0
551 -550 -42 0
-551 550 0
-551 42 0
552 -915 -549 0
-552 915 0
-552 549 0
553 -43 -1 0
-553 43 0
-553 1 0
554 -553 -707 0
-554 553 0
-554 707 0
555 -916 -552 0
-555 916 0
-555 552 0
556 -740 -710 0
-556 740 0
-556 710 0
557 -556 -784 0
-557 556 0
-557 784 0
558 -917 -555 0
-558 917 0
-558 555 0
559 -731 -700 0
-559 731 0
-559 700 0
560 -559 -805 0
-560 559 0
-560 805 0
561 -918 -558 0
-561 918 0
-561 558 0
562 -771 -789 0
-562 771 0
-562 789 0
563 -562 -746 0
-563 562 0
-563 746 0
564 -919 -561 0
-564 919 0
-564 561 0
565 -795 -6 0
-565 795 0
-565 6 0
566 -565 -807 0
-566 565 0
-566 807 0
567 -920 -564 0
-567 920 0
-567 564 0
568 -5 -4 0
-568 5 0
-568 4 0
569 -568 -774 0
-569 568 0
-569 774 0
570 -921 -567 0
-570 921 0
-570 567 0
571 -353 -799 0
-571 353 0
-571 799 0
572 -922 -570 0
-572 922 0
-572 570 0
573 -789 -8 0
-573 789 0
-573 8 0
574 -573 -703 0
-574 573 0
-574 703 0
575 -923 -572 0
-575 923 0
-575 572 0
576 -31 -715 0
-576 31 0
-576 715 0
577 -576 -11 0
-577 576 0
-577 11 0
578 -924 -575 0
-578 924 0
-578 575 0
579 -715 -697 0
-579 715 0
-579 697 0
580 -579 -711 0
-580 579 0
-580 711 0
581 -925 -578 0
-581 925 0
-581 578 0
582 -776 -835 0
-582 776 0
-582 835 0
583 -582 -722 0
-583 582 0
-583 722 0
584 -926 -581 0
-584 926 0
-584 581 0
585 -33 -866 0
-585 33 0
-585 866 0
586 -585 -771 0
-586 585 0
-586 771 0
587 -927 -584 0
-587 927 0
-587 584 0
588 -827 -10 0
-588 827 0
-588 10 0
589 -588 -41 0
-589 588 0
-589 41 0
590 -928 -587 0
-590 928 0
-590 587 0
591 -751 -6 0
-591 751 0
-591 6 0
592 -591 -42 0
-592 591 0
-592 42 0
593 -929 -590 0
-593 929 0
-593 590 0
594 -776 -9 0
-594 776 0
-594 9 0
595 -594 -5 0
-595 594 0
-595 5 0
596 -930 -593 0
-596 930 0
-596 593 0
597 -744 -19 0
-597 744 0
-597 19 0
598 -597 -722 0
-598 597 0
-598 722 0
599 -931 -596 0
-599 931 0
-599 596 0
600 -23 -715 0
-600 23 0
-600 715 0
601 -600 -779 0
-601 600 0
-601 779 0
602 -932 -599 0
-602 932 0
-602 599 0
603 -770 -37 0
-603 770 0
-603 37 0
604 -603 -21 0
-604 603 0
-604 21 0
605 -933 -602 0
-605 933 0
-605 602 0
606 -703 -1 0
-606 703 0
-606 1 0
607 -606 -3 0
-607 606 0
-607 3 0
608 -934 -605 0
-608 934 0
-608 605 0
609 -766 -710 0
-609 766 0
-609 710 0
610 -609 -835 0
-610 609 0
-610 835 0
611 -935 -608 0
-611 935 0
-611 608 0
612 -791 -779 0
-612 791 0
-612 779 0
613 -612 -746 0
-613 612 0
-613 746 0
614 -936 -611 0
-614 936 0
-614 611 0
615 -717 -7 0
-615 717 0
-615 7 0
616 -615 -30 0
-616 615 0
-616 30 0
617 -937 -614 0
-617 937 0
-617 614 0
618 -827 -732 0
-618 827 0
-618 732 0
619 -618 -18 0
-619 618 0
-619 18 0
620 -938 -617 0
-620 938 0
-620 617 0
621 -22 -14 0
-621 22 0
-621 14 0
622 -621 -2 0
-622 621 0
-622 2 0
623 -939 -620 0
-623 939 0
-623 620 0
624 -28 -835 0
-624 28 0
-624 835 0
625 -624 -722 0
-625 624 0
-625 722 0
626 -940 -623 0
-626 940 0
-626 623 0
627 -6 -710 0
-627 6 0
-627 710 0
628 -627 -722 0
-628 627 0
-628 722 0
629 -941 -626 0
-629 941 0
-629 626 0
630 -50 -13 0
-630 50 0
-630 13 0
631 -630 -3 0
-631 630 0
-631 3 0
632 -942 -629 0
-632 942 0
-632 629 0
633 -813 -16 0
-633 813 0
-633 16 0
634 -633 -820 0
-634 633 0
-634 820 0
635 -943 -632 0
-635 943 0
-635 632 0
636 -35 -835 0
-636 35 0
-636 835 0
637 -636 -726 0
-637 636 0
-637 726 0
638 -944 -635 0
-638 944 0
-638 635 0
639 -496 -748 0
-639 496 0
-639 748 0
640 -945 -638 0
-640 945 0
-640 638 0
641 -754 -6 0
-641 754 0
-641 6 0
642 -641 -11 0
-642 641 0
-642 11 0
643 -946 -640 0
-643 946 0
-643 640 0
644 -329 -32 0
-644 329 0
-644 32 0
645 -947 -643 0
-645 947 0
-645 643 0
646 -44 -19 0
-646 44 0
-646 19 0
647 -646 -707 0
-647 646 0
-647 707 0
648 -948 -645 0
-648 948 0
-648 645 0
649 -22 -19 0
-649 22 0
-649 19 0
650 -649 -35 0
-650 649 0
-650 35 0
651 -949 -648 0
-651 949 0
-651 648 0
652 -20 -14 0
-652 20 0
-652 14 0
653 -652 -771 0
-653 652 0
-653 771 0
654 -950 -651 0
-654 950 0
-654 651 0
655 -43 -41 0
-655 43 0
-655 41 0
656 -655 -771 0
-656 655 0
-656 771 0
657 -951 -654 0
-657 951 0
-657 654 0
658 -47 -726 0
-658 47 0
-658 726 0
659 -658 -11 0
-659 658 0
-659 11 0
660 -952 -657 0
-660 952 0
-660 657 0
661 -771 -20 0
-661 771 0
-661 20 0
662 -661 -18 0
-662 661 0
-662 18 0
663 -953 -660 0
-663 953 0
-663 660 0
664 -44 -32 0
-664 44 0
-664 32 0
665 -664 -807 0
-665 664 0
-665 807 0
666 -954 -663 0
-666 954 0
-666 663 0
667 -820 -771 0
-667 820 0
-667 771 0
668 -667 -27 0
-668 667 0
-668 27 0
669 -955 -666 0
-669 955 0
-669 666 0
670 -50 -22 0
-670 50 0
-670 22 0
671 -670 -784 0
-671 670 0
-671 784 0
672 -956 -669 0
-672 956 0
-672 669 0
673 -717 -6 0
-673 717 0
-673 6 0
674 -673 -736 0
-674 673 0
-674 736 0
675 -957 -672 0
-675 957 0
-675 672 0
676 -791 -866 0
-676 791 0
-676 866 0
677 -676 -795 0
-677 676 0
-677 795 0
678 -958 -675 0
-678 958 0
-678 675 0
679 -32 -729 0
-679 32 0
-679 729 0
680 -679 -700 0
-680 679 0
-680 700 0
681 -959 -678 0
-681 959 0
-681 678 0
682 -31 -4 0
-682 31 0
-682 4 0
683 -682 -16 0
-683 682 0
-683 16 0
684 -960 -681 0
-684 960 0
-684 681 0
685 -48 -708 0
-685 48 0
-685 708 0
686 -685 -29 0
-686 685 0
-686 29 0
687 -961 -684 0
-687 961 0
-687 684 0
688 -722 -22 0
-688 722 0
-688 22 0
689 -688 -711 0
-689 688 0
-689 711 0
690 -962 -687 0
-690 962 0
-690 687 0
691 -35 -2 0
-691 35 0
-691 2 0
692 -691 -3 0
-692 691 0
-692 3 0
693 -963 -690 0
-693 963 0
-693 690 0
694 -738 -717 0
-694 738 0
-694 717 0
695 -694 -805 0
-695 694 0
-695 805 0
696 -964 -693 0
-696 964 0
-696 693 0
-697 -3 0
697 3 0
-698 -54 0
698 54 0
-699 -52 0
699 52 0
-700 -7 0
700 7 0
-701 -8 0
701 8 0
-702 -57 0
702 57 0
-703 -10 0
703 10 0
-704 -60 0
704 60 0
-705 -12 0
705 12 0
-706 -63 0
706 63 0
-707 -15 0
707 15 0
-708 -16 0
708 16 0
-709 -66 0
709 66 0
-710 -4 0
710 4 0
-711 -18 0
711 18 0
-712 -69 0
712 69 0
-713 -72 0
713 72 0
-714 -75 0
714 75 0
-715 -22 0
715 22 0
-716 -78 0
716 78 0
-717 -23 0
717 23 0
-718 -81 0
718 81 0
-719 -26 0
719 26 0
-720 -84 0
720 84 0
-721 -87 0
721 87 0
-722 -27 0
722 27 0
-723 -90 0
723 90 0
-724 -93 0
724 93 0
-725 -32 0
725 32 0
-726 -2 0
726 2 0
-727 -96 0
727 96 0
-728 -33 0
728 33 0
-729 -9 0
729 9 0
-730 -99 0
730 99 0
-731 -35 0
731 35 0
-732 -24 0
732 24 0
-733 -102 0
733 102 0
-734 -105 0
734 105 0
-735 -108 0
735 108 0
-736 -36 0
736 36 0
-737 -111 0
737 111 0
-738 -37 0
738 37 0
-739 -114 0
739 114 0
-740 -6 0
740 6 0
-741 -117 0
741 117 0
-742 -120 0
742 120 0
-743 -34 0
743 34 0
-744 -40 0
744 40 0
-745 -123 0
745 123 0
-746 -30 0
746 30 0
-747 -126 0
747 126 0
-748 -41 0
748 41 0
-749 -21 0
749 21 0
-750 -129 0
750 129 0
-751 -31 0
751 31 0
-752 -20 0
752 20 0
-753 -132 0
753 132 0
-754 -42 0
754 42 0
-755 -135 0
755 135 0
-756 -138 0
756 138 0
-757 -141 0
757 141 0
-758 -144 0
758 144 0
-759 -147 0
759 147 0
-760 -150 0
760 150 0
-761 -17 0
761 17 0
-762 -153 0
762 153 0
-763 -156 0
763 156 0
-764 -159 0
764 159 0
-765 -162 0
765 162 0
-766 -14 0
766 14 0
-767 -165 0
767 165 0
-768 -168 0
768 168 0
-769 -171 0
769 171 0
-770 -43 0
770 43 0
-771 -45 0
771 45 0
-772 -174 0
772 174 0
-773 -177 0
773 177 0
-774 -46 0
774 46 0
-775 -180 0
775 180 0
-776 -44 0
776 44 0
-777 -183 0
777 183 0
-778 -186 0
778 186 0
-779 -28 0
779 28 0
-780 -189 0
780 189 0
-781 -192 0
781 192 0
-782 -195 0
782 195 0
-783 -198 0
783 198 0
-784 -11 0
784 11 0
-785 -201 0
785 201 0
-786 -204 0
786 204 0
-787 -207 0
787 207 0
-788 -209 0
788 209 0
-789 -19 0
789 19 0
-790 -212 0
790 212 0
-791 -47 0
791 47 0
-792 -215 0
792 215 0
-793 -218 0
793 218 0
-794 -221 0
794 221 0
-795 -49 0
795 49 0
-796 -224 0
796 224 0
-797 -227 0
797 227 0
-798 -230 0
798 230 0
-799 -5 0
799 5 0
-800 -233 0
800 233 0
-801 -236 0
801 236 0
-802 -239 0
802 239 0
-803 -242 0
803 242 0
-804 -245 0
804 245 0
-805 -29 0
805 29 0
-806 -248 0
806 248 0
-807 -39 0
807 39 0
-808 -251 0
808 251 0
-809 -254 0
809 254 0
-810 -257 0
810 257 0
-811 -260 0
811 260 0
-812 -263 0
812 263 0
-813 -48 0
813 48 0
-814 -266 0
814 266 0
-815 -269 0
815 269 0
-816 -272 0
816 272 0
-817 -275 0
817 275 0
-818 -278 0
818 278 0
-819 -281 0
819 281 0
-820 -50 0
820 50 0
-821 -284 0
821 284 0
-822 -287 0
822 287 0
-823 -290 0
823 290 0
-824 -293 0
824 293 0
-825 -296 0
825 296 0
-826 -299 0
826 299 0
-827 -38 0
827 38 0
-828 -302 0
828 302 0
-829 -304 0
829 304 0
-830 -307 0
830 307 0
-831 -310 0
831 310 0
-832 -313 0
832 313 0
-833 -316 0
833 316 0
-834 -319 0
834 319 0
-835 -1 0
835 1 0
-836 -322 0
836 322 0
-837 -325 0
837 325 0
-838 -327 0
838 327 0
-839 -330 0
839 330 0
-840 -333 0
840 333 0
-841 -336 0
841 336 0
-842 -339 0
842 339 0
-843 -342 0
843 342 0
-844 -345 0
844 345 0
-845 -348 0
845 348 0
-846 -351 0
846 351 0
-847 -354 0
847 354 0
-848 -357 0
848 357 0
-849 -360 0
849 360 0
-850 -363 0
850 363 0
-851 -366 0
851 366 0
-852 -369 0
852 369 0
-853 -372 0
853 372 0
-854 -375 0
854 375 0
-855 -378 0
855 378 0
-856 -381 0
856 381 0
-857 -384 0
857 384 0
-858 -387 0
858 387 0
-859 -390 0
859 390 0
-860 -393 0
860 393 0
-861 -396 0
861 396 0
-862 -399 0
862 399 0
-863 -402 0
863 402 0
-864 -405 0
864 405 0
-865 -408 0
865 408 0
-866 -25 0
866 25 0
-867 -411 0
867 411 0
-868 -414 0
868 414 0
-869 -417 0
869 417 0
-870 -420 0
870 420 0
-871 -423 0
871 423 0
-872 -426 0
872 426 0
-873 -429 0
873 429 0
-874 -432 0
874 432 0
-875 -435 0
875 435 0
-876 -438 0
876 438 0
-877 -441 0
877 441 0
-878 -444 0
878 444 0
-879 -447 0
879 447 0
-880 -450 0
880 450 0
-881 -453 0
881 453 0
-882 -13 0
882 13 0
-883 -456 0
883 456 0
-884 -459 0
884 459 0
-885 -462 0
885 462 0
-886 -465 0
886 465 0
-887 -468 0
887 468 0
-888 -471 0
888 471 0
-889 -474 0
889 474 0
-890 -476 0
890 476 0
-891 -479 0
891 479 0
-892 -482 0
892 482 0
-893 -485 0
893 485 0
-894 -488 0
894 488 0
-895 -491 0
895 491 0
-896 -494 0
896 494 0
-897 -497 0
897 497 0
-898 -500 0
898 500 0
-899 -503 0
899 503 0
-900 -506 0
900 506 0
-901 -509 0
901 509 0
-902 -512 0
902 512 0
-903 -515 0
903 515 0
-904 -518 0
904 518 0
-905 -521 0
905 521 0
-906 -524 0
906 524 0
-907 -527 0
907 527 0
-908 -530 0
908 530 0
-909 -533 0
909 533 0
-910 -536 0
910 536 0
-911 -539 0
911 539 0
-912 -542 0
912 542 0
-913 -545 0
913 545 0
-914 -548 0
914 548 0
-915 -551 0
915 551 0
-916 -554 0
916 554 0
-917 -557 0
917 557 0
-918 -560 0
918 560 0
-919 -563 0
919 563 0
-920 -566 0
920 566 0
-921 -569 0
921 569 0
-922 -571 0
922 571 0
-923 -574 0
923 574 0
-924 -577 0
924 577 0
-925 -580 0
925 580 0
-926 -583 0
926 583 0
-927 -586 0
927 586 0
-928 -589 0
928 589 0
-929 -592 0
929 592 0
-930 -595 0
930 595 0
-931 -598 0
931 598 0
-932 -601 0
932 601 0
-933 -604 0
933 604 0
-934 -607 0
934 607 0
-935 -610 0
935 610 0
-936 -613 0
936 613 0
-937 -616 0
937 616 0
-938 -619 0
938 619 0
-939 -622 0
939 622 0
-940 -625 0
940 625 0
-941 -628 0
941 628 0
-942 -631 0
942 631 0
-943 -634 0
943 634 0
-944 -637 0
944 637 0
-945 -639 0
945 639 0
-946 -642 0
946 642 0
-947 -644 0
947 644 0
-948 -647 0
948 647 0
-949 -650 0
949 650 0
-950 -653 0
950 653 0
-951 -656 0
951 656 0
-952 -659 0
952 659 0
-953 -662 0
953 662 0
-954 -665 0
954 665 0
-955 -668 0
955 668 0
-956 -671 0
956 671 0
-957 -674 0
957 674 0
-958 -677 0
958 677 0
-959 -680 0
959 680 0
-960 -683 0
960 683 0
-961 -686 0
961 686 0
-962 -689 0
962 689 0
-963 -692 0
963 692 0
-964 -695 0
964 695 0
696 0
